p cnf 33 106
-3 1 0
-3 -2 0
-1 2 3 0
-4 5 -6 0
4 -5 -6 0
-4 -5 6 0
4 5 6 0
-6 -5 -7 0
6 5 -7 0
-6 5 7 0
6 -5 7 0
-7 -2 -8 0
7 2 -8 0
-7 2 8 0
7 -2 8 0
11 9 0
11 10 0
-9 -10 -11 0
-9 -11 -12 0
9 11 -12 0
-9 11 12 0
9 -11 12 0
-14 -12 0
-14 13 0
12 -13 14 0
-15 -8 0
-15 14 0
8 -14 15 0
10 16 0
-10 16 0
15 16 -17 0
-15 -16 -17 0
15 -16 17 0
-15 16 17 0
-3 17 -18 0
3 -17 -18 0
-3 -17 18 0
3 17 18 0
-21 -19 0
-21 20 0
19 -20 21 0
21 10 -22 0
-21 -10 -22 0
21 -10 22 0
-21 10 22 0
-22 -9 -23 0
22 9 -23 0
-22 9 23 0
22 -9 23 0
24 11 0
24 -10 0
-11 10 -24 0
-24 25 -26 0
24 -25 -26 0
-24 -25 26 0
24 25 26 0
-23 26 -27 0
23 -26 -27 0
-23 -26 27 0
23 26 27 0
-28 -18 0
-28 -27 0
18 27 28 0
-29 10 0
-29 -9 0
-10 9 29 0
-29 -6 -30 0
29 6 -30 0
-29 6 30 0
29 -6 30 0
28 30 -31 0
-28 -30 -31 0
28 -30 31 0
-28 30 31 0
32 2 0
32 -21 0
-2 21 -32 0
31 -32 -33 0
-31 32 -33 0
31 32 33 0
-31 -32 33 0
-14 32 0
22 6 0
-4 -18 -19 0
-13 -6 0
-11 26 32 0
2 -33 -6 15 14 0
19 32 -24 -3 -27 0
31 21 26 0
10 -23 13 32 -20 0
27 -23 30 17 9 22 0
-8 23 -20 0
-18 19 -23 26 0
-2 22 -26 0
22 -2 -17 0
-4 23 -5 0
2 10 32 -1 14 15 0
13 -26 15 -19 23 0
-2 -28 17 3 0
-25 19 -27 -9 -22 0
30 20 -18 -19 -6 0
13 -19 1 28 16 23 0
-29 -17 0
-20 21 -1 33 0
10 -22 -4 0
33 0
